NAME 
ROWS
 N  OBJ
 L  R0      
 L  R1      
 L  R2      
 E  R3      
 E  R4      
 E  R5      
 E  R6      
 E  R7      
 E  R8      
 E  R9      
 E  R10     
 E  R11     
 E  R12     
 E  R13     
 E  R14     
 E  R15     
 E  R16     
 E  R17     
COLUMNS
    MARKER    'MARKER'                 'INTORG'
    I0(9)     OBJ       -26
    I0(9)     R0        10
    I0(9)     R1        -13
    I0(9)     R2        -101
    I0(9)     R4        10
    I0(9)     R5        14
    I0(9)     R8        18
    I0(9)     R9        10
    I0(9)     R10       14
    I0(9)     R17       1
    I1(9)     OBJ       87
    I1(9)     R0        20
    I1(9)     R1        -122
    I1(9)     R2        140
    I1(9)     R3        7
    I1(9)     R5        7
    I1(9)     R8        12
    I1(9)     R9        18
    I1(9)     R11       10
    I1(9)     R17       1
    I2(8)     OBJ       -162
    I2(8)     R0        -17
    I2(8)     R1        -167
    I2(8)     R2        -1
    I2(8)     R3        17
    I2(8)     R4        3
    I2(8)     R10       12
    I2(8)     R11       14
    I2(8)     R17       1
    I3(10)    OBJ       -98
    I3(10)    R0        -157
    I3(10)    R1        42
    I3(10)    R2        -75
    I3(10)    R3        18
    I3(10)    R4        17
    I3(10)    R5        3
    I3(10)    R6        1
    I3(10)    R7        5
    I3(10)    R9        18
    I3(10)    R17       1
    I4(9)     OBJ       114
    I4(9)     R0        -53
    I4(9)     R1        37
    I4(9)     R2        161
    I4(9)     R5        1
    I4(9)     R6        19
    I4(9)     R8        12
    I4(9)     R10       16
    I4(9)     R11       3
    I4(9)     R17       1
    I5(8)     OBJ       89
    I5(8)     R0        75
    I5(8)     R1        -110
    I5(8)     R2        -130
    I5(8)     R6        11
    I5(8)     R7        15
    I5(8)     R8        16
    I5(8)     R9        2
    I5(8)     R17       1
    I6(11)    OBJ       57
    I6(11)    R0        -31
    I6(11)    R1        30
    I6(11)    R2        -132
    I6(11)    R3        4
    I6(11)    R4        8
    I6(11)    R5        15
    I6(11)    R6        9
    I6(11)    R7        4
    I6(11)    R9        10
    I6(11)    R11       11
    I6(11)    R17       1
    I7(10)    OBJ       -76
    I7(10)    R0        119
    I7(10)    R1        34
    I7(10)    R2        58
    I7(10)    R3        11
    I7(10)    R4        7
    I7(10)    R6        19
    I7(10)    R8        7
    I7(10)    R9        12
    I7(10)    R10       19
    I7(10)    R17       1
    I8(10)    OBJ       -13
    I8(10)    R0        -36
    I8(10)    R1        -178
    I8(10)    R2        -105
    I8(10)    R4        10
    I8(10)    R6        12
    I8(10)    R8        1
    I8(10)    R9        9
    I8(10)    R10       13
    I8(10)    R11       9
    I8(10)    R17       1
    MARKER    'MARKER'                 'INTEND'
    C9(10)    OBJ       7
    C9(10)    R0        -4
    C9(10)    R1        -9
    C9(10)    R2        -6
    C9(10)    R3        9
    C9(10)    R5        15
    C9(10)    R6        3
    C9(10)    R11       2
    C9(10)    R12       10
    C9(10)    R13       19
    C9(10)    R15       15
    C10(12)   OBJ       -4
    C10(12)   R0        -6
    C10(12)   R2        1
    C10(12)   R3        17
    C10(12)   R5        8
    C10(12)   R7        18
    C10(12)   R8        15
    C10(12)   R10       3
    C10(12)   R12       2
    C10(12)   R13       9
    C10(12)   R14       14
    C10(12)   R15       7
    C10(12)   R16       16
    C11(11)   OBJ       -10
    C11(11)   R0        -7
    C11(11)   R1        1
    C11(11)   R2        1
    C11(11)   R4        7
    C11(11)   R5        12
    C11(11)   R7        5
    C11(11)   R9        9
    C11(11)   R10       19
    C11(11)   R11       2
    C11(11)   R12       18
    C11(11)   R14       6
    C12(13)   OBJ       -8
    C12(13)   R0        -2
    C12(13)   R1        -8
    C12(13)   R2        5
    C12(13)   R3        4
    C12(13)   R4        13
    C12(13)   R6        7
    C12(13)   R7        7
    C12(13)   R11       14
    C12(13)   R12       -1
    C12(13)   R13       4
    C12(13)   R14       6
    C12(13)   R15       19
    C12(13)   R16       9
    C13(14)   OBJ       -10
    C13(14)   R0        -10
    C13(14)   R1        2
    C13(14)   R2        -6
    C13(14)   R5        15
    C13(14)   R6        9
    C13(14)   R7        8
    C13(14)   R9        12
    C13(14)   R10       2
    C13(14)   R11       9
    C13(14)   R12       18
    C13(14)   R13       10
    C13(14)   R14       18
    C13(14)   R15       12
    C13(14)   R16       12
    C14(12)   OBJ       -7
    C14(12)   R0        5
    C14(12)   R1        9
    C14(12)   R2        6
    C14(12)   R3        -1
    C14(12)   R5        12
    C14(12)   R8        11
    C14(12)   R10       3
    C14(12)   R11       16
    C14(12)   R13       5
    C14(12)   R14       11
    C14(12)   R15       12
    C14(12)   R16       13
    C15(1)    R3        1
    C16(1)    R4        1
    C17(1)    R5        1
    C18(1)    R6        1
    C19(1)    R7        1
    C20(1)    R8        1
    C21(1)    R9        1
    C22(1)    R10       1
    C23(1)    R11       1
    C24(1)    R12       1
    C25(1)    R13       1
    C26(1)    R14       1
    C27(1)    R15       1
    C28(1)    R16       1
    C29(1)    R17       1
RHS
    RHS1      R0        -2.3269824561403507e+02
    RHS1      R1        -3.1015263157894742e+02
    RHS1      R2        -7.6919298245614016e+01
    RHS1      R3        77
    RHS1      R4        88
    RHS1      R5        62
    RHS1      R6        55
    RHS1      R7        69
    RHS1      R8        90
    RHS1      R9        91
    RHS1      R10       51
    RHS1      R11       99
    RHS1      R12       92
    RHS1      R13       54
    RHS1      R14       98
    RHS1      R15       92
    RHS1      R16       61
    RHS1      R17       3
BOUNDS
 UP BND1      I0(9)     2
 UP BND1      I1(9)     2
 UP BND1      I2(8)     2
 UP BND1      I3(10)    2
 UP BND1      I4(9)     2
 UP BND1      I5(8)     2
 UP BND1      I6(11)    2
 UP BND1      I7(10)    2
 UP BND1      I8(10)    2
ENDATA
